\ENCODING=ISO-8859-1
\Problem name: LP/crossvalidation_paper/er_n=103_m=518_p=0.10_SET2_setparam=100.00_alpha=0.75_3

Maximize
 obj1: 100 x0 + 100 x1 + 100 x2 + 100 x3 + 100 x4 + 100 x5 + 100 x6 + 100 x7
       + 100 x8 + 100 x9 + 100 x10 + 100 x11 + 100 x12 + 100 x13 + 100 x14
       + 100 x15 + 100 x16 + 100 x17 + 100 x18 + 100 x19 + 100 x20 + 100 x21
       + 100 x22 + 100 x23 + 100 x24 + 100 x25 + 100 x26 + 100 x27 + 100 x28
       + 100 x29 + 100 x30 + 100 x31 + 100 x32 + 100 x33 + 100 x34 + 100 x35
       + 100 x36 + 100 x37 + 100 x38 + 100 x39 + 100 x40 + 100 x41 + 100 x42
       + 100 x43 + 100 x44 + 100 x45 + 100 x46 + 100 x47 + 100 x48 + 100 x49
       + 100 x50 + 100 x51 + 100 x52 + 100 x53 + 100 x54 + 100 x55 + 100 x56
       + 100 x57 + 100 x58 + 100 x59 + 100 x60 + 100 x61 + 100 x62 + 100 x63
       + 100 x64 + 100 x65 + 100 x66 + 100 x67 + 100 x68 + 100 x69 + 100 x70
       + 100 x71 + 100 x72 + 100 x73 + 100 x74 + 100 x75 + 100 x76 + 100 x77
       + 100 x78 + 100 x79 + 100 x80 + 100 x81 + 100 x82 + 100 x83 + 100 x84
       + 100 x85 + 100 x86 + 100 x87 + 100 x88 + 100 x89 + 100 x90 + 100 x91
       + 100 x92 + 100 x93 + 100 x94 + 100 x95 + 100 x96 + 100 x97 + 100 x98
       + 100 x99 + 100 x100 + 100 x101 + 100 x102 - y0_86 - y21_28 - y30_41
       - y86_90 - y95_101 - y8_63 - y0_76 - y5_57 - y6_54 - y14_31 - y11_22
       - y32_87 - y36_67 - y2_47 - y27_93 - y17_39 - y37_44 - y11_41 - y29_95
       - y61_63 - y6_67 - y78_101 - y83_90 - y45_71 - y20_47 - y58_59 - y7_15
       - y3_55 - y62_84 - y33_59 - y8_51 - y72_80 - y17_50 - y42_74 - y14_19
       - y55_92 - y67_94 - y30_86 - y7_80 - y44_98 - y24_40 - y9_79 - y18_98
       - y69_102 - y19_27 - y80_98 - y6_27 - y27_65 - y38_93 - y11_61 - y18_48
       - y89_91 - y4_99 - y65_75 - y15_57 - y32_82 - y20_61 - y23_64 - y21_48
       - y73_100 - y29_48 - y70_101 - y24_94 - y73_78 - y54_56 - y2_82 - y0_78
       - y61_74 - y33_47 - y49_76 - y15_24 - y26_96 - y41_82 - y55_102 - y6_21
       - y12_93 - y27_95 - y38_79 - y39_87 - y13_87 - y63_93 - y35_54 - y28_79
       - y54_97 - y9_98 - y1_13 - y18_79 - y57_88 - y87_98 - y2_10 - y0_38
       - y48_96 - y6_12 - y2_36 - y16_31 - y34_62 - y14_102 - y43_47 - y41_51
       - y10_17 - y0_7 - y69_90 - y8_71 - y22_75 - y60_95 - y26_32 - y61_85
       - y7_28 - y63_67 - y6_51 - y38_83 - y24_101 - y5_77 - y15_29 - y29_99
       - y91_95 - y48_56 - y30_97 - y19_34 - y10_86 - y25_86 - y6_16 - y73_76
       - y36_64 - y7_21 - y27_88 - y50_80 - y25_98 - y13_54 - y1_16 - y65_100
       - y46_79 - y55_96 - y3_6 - y57_85 - y43_102 - y56_62 - y46_49 - y47_52
       - y21_33 - y37_40 - y65_91 - y9_23 - y55_67 - y67_93 - y44_73 - y18_77
       - y41_99 - y24_37 - y48_98 - y57_64 - y25_74 - y14_100 - y41_49 - y56_93
       - y40_96 - y64_102 - y46_67 - y20_50 - y89_98 - y68_84 - y69_98
       - y66_100 - y38_101 - y96_99 - y37_83 - y35_38 - y6_49 - y51_75 - y29_71
       - y67_75 - y47_82 - y33_88 - y11_100 - y71_79 - y3_41 - y82_95 - y0_66
       - y63_74 - y39_90 - y49_64 - y63_80 - y29_64 - y75_90 - y4_86 - y36_54
       - y7_66 - y3_8 - y84_101 - y26_48 - y91_98 - y33_75 - y53_56 - y71_98
       - y86_87 - y5_44 - y11_73 - y29_63 - y27_83 - y40_41 - y39_83 - y34_35
       - y8_24 - y65_89 - y14_18 - y25_26 - y60_102 - y37_78 - y5_21 - y24_86
       - y1_84 - y52_80 - y50_64 - y9_52 - y27_100 - y20_77 - y1_26 - y30_98
       - y85_99 - y51_54 - y20_26 - y27_33 - y59_65 - y23_63 - y82_98 - y7_24
       - y40_61 - y49_77 - y74_95 - y12_52 - y43_62 - y31_83 - y6_99 - y22_70
       - y59_96 - y51_63 - y2_50 - y46_50 - y10_82 - y23_52 - y21_36 - y32_36
       - y55_59 - y51_82 - y60_63 - y8_13 - y7_47 - y37_43 - y78_94 - y75_92
       - y28_78 - y66_90 - y83_93 - y8_46 - y11_75 - y6_33 - y38_65 - y41_42
       - y40_49 - y28_99 - y0_6 - y60_96 - y15_51 - y19_52 - y44_99 - y92_101
       - y14_92 - y71_85 - y73_98 - y4_18 - y14_70 - y12_82 - y25_78 - y6_24
       - y27_64 - y6_50 - y3_76 - y53_90 - y10_49 - y72_88 - y41_53 - y5_78
       - y14_27 - y15_18 - y91_92 - y13_24 - y7_102 - y25_45 - y15_38 - y70_90
       - y59_67 - y32_47 - y6_53 - y73_87 - y42_61 - y75_89 - y38_47 - y44_59
       - y76_91 - y49_63 - y65_101 - y3_7 - y34_80 - y23_54 - y47_53 - y72_96
       - y48_64 - y16_25 - y11_42 - y22_101 - y20_93 - y18_61 - y77_92
       - y54_102 - y16_78 - y30_82 - y28_102 - y18_76 - y57_95 - y8_65 - y45_68
       - y34_69 - y0_93 - y38_71 - y36_83 - y34_63 - y63_69 - y35_62 - y9_55
       - y38_51 - y1_99 - y42_83 - y18_71 - y66_77 - y24_43 - y3_27 - y51_53
       - y45_87 - y50_98 - y11_62 - y53_66 - y15_28 - y64_70 - y42_90 - y12_23
       - y60_87 - y46_47 - y62_69 - y6_17 - y99_101 - y5_36 - y17_33 - y35_50
       - y22_90 - y43_67 - y41_87 - y45_73 - y35_68 - y20_45 - y9_64 - y4_40
       - y0_88 - y23_46 - y38_66 - y7_43 - y11_44 - y29_90 - y17_60 - y40_84
       - y30_80 - y5_98 - y14_55 - y57_93 - y3_20 - y47_60 - y11_79 - y17_19
       - y13_77 - y6_63 - y17_53 - y77_83 - y0_26 - y1_27 - y66_75 - y17_97
       - y21_72 - y58_92
Subject To
 c1:   x0 + x6 - y0_6 <= 1
 c2:   x0 + x7 - y0_7 <= 1
 c3:   x0 + x22 <= 1
 c4:   x0 + x26 - y0_26 <= 1
 c5:   x0 + x38 - y0_38 <= 1
 c6:   x0 + x66 - y0_66 <= 1
 c7:   x0 + x69 <= 1
 c8:   x0 + x76 - y0_76 <= 1
 c9:   x0 + x78 - y0_78 <= 1
 c10:  x0 + x86 - y0_86 <= 1
 c11:  x0 + x88 - y0_88 <= 1
 c12:  x0 + x93 - y0_93 <= 1
 c13:  x1 + x13 - y1_13 <= 1
 c14:  x1 + x16 - y1_16 <= 1
 c15:  x1 + x19 <= 1
 c16:  x1 + x26 - y1_26 <= 1
 c17:  x1 + x27 - y1_27 <= 1
 c18:  x1 + x41 <= 1
 c19:  x1 + x84 - y1_84 <= 1
 c20:  x1 + x99 - y1_99 <= 1
 c21:  x2 + x3 <= 1
 c22:  x2 + x10 - y2_10 <= 1
 c23:  x2 + x33 <= 1
 c24:  x2 + x36 - y2_36 <= 1
 c25:  x2 + x43 <= 1
 c26:  x2 + x44 <= 1
 c27:  x2 + x47 - y2_47 <= 1
 c28:  x2 + x50 - y2_50 <= 1
 c29:  x2 + x64 <= 1
 c30:  x2 + x82 - y2_82 <= 1
 c31:  x2 + x102 <= 1
 c32:  x3 + x6 - y3_6 <= 1
 c33:  x3 + x7 - y3_7 <= 1
 c34:  x3 + x8 - y3_8 <= 1
 c35:  x3 + x11 <= 1
 c36:  x3 + x20 - y3_20 <= 1
 c37:  x3 + x27 - y3_27 <= 1
 c38:  x3 + x41 - y3_41 <= 1
 c39:  x3 + x55 - y3_55 <= 1
 c40:  x3 + x76 - y3_76 <= 1
 c41:  x4 + x18 - y4_18 <= 1
 c42:  x4 + x19 <= 1
 c43:  x4 + x25 <= 1
 c44:  x4 + x40 - y4_40 <= 1
 c45:  x4 + x77 <= 1
 c46:  x4 + x86 - y4_86 <= 1
 c47:  x4 + x99 - y4_99 <= 1
 c48:  x5 + x21 - y5_21 <= 1
 c49:  x5 + x36 - y5_36 <= 1
 c50:  x5 + x44 - y5_44 <= 1
 c51:  x5 + x54 <= 1
 c52:  x5 + x57 - y5_57 <= 1
 c53:  x5 + x77 - y5_77 <= 1
 c54:  x5 + x78 - y5_78 <= 1
 c55:  x5 + x98 - y5_98 <= 1
 c56:  x6 + x12 - y6_12 <= 1
 c57:  x6 + x16 - y6_16 <= 1
 c58:  x6 + x17 - y6_17 <= 1
 c59:  x6 + x21 - y6_21 <= 1
 c60:  x6 + x24 - y6_24 <= 1
 c61:  x6 + x27 - y6_27 <= 1
 c62:  x6 + x33 - y6_33 <= 1
 c63:  x6 + x45 <= 1
 c64:  x6 + x49 - y6_49 <= 1
 c65:  x6 + x50 - y6_50 <= 1
 c66:  x6 + x51 - y6_51 <= 1
 c67:  x6 + x53 - y6_53 <= 1
 c68:  x6 + x54 - y6_54 <= 1
 c69:  x6 + x63 - y6_63 <= 1
 c70:  x6 + x67 - y6_67 <= 1
 c71:  x6 + x95 <= 1
 c72:  x6 + x99 - y6_99 <= 1
 c73:  x7 + x15 - y7_15 <= 1
 c74:  x7 + x21 - y7_21 <= 1
 c75:  x7 + x24 - y7_24 <= 1
 c76:  x7 + x28 - y7_28 <= 1
 c77:  x7 + x40 <= 1
 c78:  x7 + x43 - y7_43 <= 1
 c79:  x7 + x47 - y7_47 <= 1
 c80:  x7 + x66 - y7_66 <= 1
 c81:  x7 + x69 <= 1
 c82:  x7 + x80 - y7_80 <= 1
 c83:  x7 + x102 - y7_102 <= 1
 c84:  x8 + x13 - y8_13 <= 1
 c85:  x8 + x24 - y8_24 <= 1
 c86:  x8 + x46 - y8_46 <= 1
 c87:  x8 + x51 - y8_51 <= 1
 c88:  x8 + x58 <= 1
 c89:  x8 + x60 <= 1
 c90:  x8 + x63 - y8_63 <= 1
 c91:  x8 + x65 - y8_65 <= 1
 c92:  x8 + x71 - y8_71 <= 1
 c93:  x8 + x86 <= 1
 c94:  x9 + x23 - y9_23 <= 1
 c95:  x9 + x52 - y9_52 <= 1
 c96:  x9 + x55 - y9_55 <= 1
 c97:  x9 + x61 <= 1
 c98:  x9 + x64 - y9_64 <= 1
 c99:  x9 + x69 <= 1
 c100: x9 + x79 - y9_79 <= 1
 c101: x9 + x85 <= 1
 c102: x9 + x98 - y9_98 <= 1
 c103: x10 + x17 - y10_17 <= 1
 c104: x10 + x37 <= 1
 c105: x10 + x42 <= 1
 c106: x10 + x49 - y10_49 <= 1
 c107: x10 + x82 - y10_82 <= 1
 c108: x10 + x86 - y10_86 <= 1
 c109: x11 + x19 <= 1
 c110: x11 + x22 - y11_22 <= 1
 c111: x11 + x41 - y11_41 <= 1
 c112: x11 + x42 - y11_42 <= 1
 c113: x11 + x44 - y11_44 <= 1
 c114: x11 + x54 <= 1
 c115: x11 + x57 <= 1
 c116: x11 + x61 - y11_61 <= 1
 c117: x11 + x62 - y11_62 <= 1
 c118: x11 + x73 - y11_73 <= 1
 c119: x11 + x75 - y11_75 <= 1
 c120: x11 + x79 - y11_79 <= 1
 c121: x11 + x100 - y11_100 <= 1
 c122: x12 + x23 - y12_23 <= 1
 c123: x12 + x28 <= 1
 c124: x12 + x52 - y12_52 <= 1
 c125: x12 + x82 - y12_82 <= 1
 c126: x12 + x93 - y12_93 <= 1
 c127: x13 + x24 - y13_24 <= 1
 c128: x13 + x35 <= 1
 c129: x13 + x54 - y13_54 <= 1
 c130: x13 + x77 - y13_77 <= 1
 c131: x13 + x87 - y13_87 <= 1
 c132: x14 + x18 - y14_18 <= 1
 c133: x14 + x19 - y14_19 <= 1
 c134: x14 + x27 - y14_27 <= 1
 c135: x14 + x31 - y14_31 <= 1
 c136: x14 + x48 <= 1
 c137: x14 + x54 <= 1
 c138: x14 + x55 - y14_55 <= 1
 c139: x14 + x67 <= 1
 c140: x14 + x70 - y14_70 <= 1
 c141: x14 + x86 <= 1
 c142: x14 + x88 <= 1
 c143: x14 + x92 - y14_92 <= 1
 c144: x14 + x100 - y14_100 <= 1
 c145: x14 + x102 - y14_102 <= 1
 c146: x15 + x18 - y15_18 <= 1
 c147: x15 + x24 - y15_24 <= 1
 c148: x15 + x28 - y15_28 <= 1
 c149: x15 + x29 - y15_29 <= 1
 c150: x15 + x38 - y15_38 <= 1
 c151: x15 + x51 - y15_51 <= 1
 c152: x15 + x57 - y15_57 <= 1
 c153: x15 + x65 <= 1
 c154: x16 + x25 - y16_25 <= 1
 c155: x16 + x31 - y16_31 <= 1
 c156: x16 + x50 <= 1
 c157: x16 + x60 <= 1
 c158: x16 + x78 - y16_78 <= 1
 c159: x17 + x19 - y17_19 <= 1
 c160: x17 + x33 - y17_33 <= 1
 c161: x17 + x39 - y17_39 <= 1
 c162: x17 + x50 - y17_50 <= 1
 c163: x17 + x52 <= 1
 c164: x17 + x53 - y17_53 <= 1
 c165: x17 + x57 <= 1
 c166: x17 + x60 - y17_60 <= 1
 c167: x17 + x69 <= 1
 c168: x17 + x97 - y17_97 <= 1
 c169: x18 + x39 <= 1
 c170: x18 + x48 - y18_48 <= 1
 c171: x18 + x58 <= 1
 c172: x18 + x61 - y18_61 <= 1
 c173: x18 + x71 - y18_71 <= 1
 c174: x18 + x76 - y18_76 <= 1
 c175: x18 + x77 - y18_77 <= 1
 c176: x18 + x79 - y18_79 <= 1
 c177: x18 + x85 <= 1
 c178: x18 + x98 - y18_98 <= 1
 c179: x19 + x27 - y19_27 <= 1
 c180: x19 + x34 - y19_34 <= 1
 c181: x19 + x52 - y19_52 <= 1
 c182: x20 + x26 - y20_26 <= 1
 c183: x20 + x45 - y20_45 <= 1
 c184: x20 + x47 - y20_47 <= 1
 c185: x20 + x50 - y20_50 <= 1
 c186: x20 + x59 <= 1
 c187: x20 + x61 - y20_61 <= 1
 c188: x20 + x77 - y20_77 <= 1
 c189: x20 + x93 - y20_93 <= 1
 c190: x20 + x100 <= 1
 c191: x21 + x28 - y21_28 <= 1
 c192: x21 + x33 - y21_33 <= 1
 c193: x21 + x36 - y21_36 <= 1
 c194: x21 + x47 <= 1
 c195: x21 + x48 - y21_48 <= 1
 c196: x21 + x70 <= 1
 c197: x21 + x72 - y21_72 <= 1
 c198: x21 + x85 <= 1
 c199: x21 + x88 <= 1
 c200: x21 + x90 <= 1
 c201: x22 + x53 <= 1
 c202: x22 + x70 - y22_70 <= 1
 c203: x22 + x75 - y22_75 <= 1
 c204: x22 + x90 - y22_90 <= 1
 c205: x22 + x93 <= 1
 c206: x22 + x101 - y22_101 <= 1
 c207: x23 + x46 - y23_46 <= 1
 c208: x23 + x49 <= 1
 c209: x23 + x52 - y23_52 <= 1
 c210: x23 + x54 - y23_54 <= 1
 c211: x23 + x63 - y23_63 <= 1
 c212: x23 + x64 - y23_64 <= 1
 c213: x24 + x37 - y24_37 <= 1
 c214: x24 + x40 - y24_40 <= 1
 c215: x24 + x43 - y24_43 <= 1
 c216: x24 + x86 - y24_86 <= 1
 c217: x24 + x94 - y24_94 <= 1
 c218: x24 + x100 <= 1
 c219: x24 + x101 - y24_101 <= 1
 c220: x25 + x26 - y25_26 <= 1
 c221: x25 + x35 <= 1
 c222: x25 + x45 - y25_45 <= 1
 c223: x25 + x67 <= 1
 c224: x25 + x74 - y25_74 <= 1
 c225: x25 + x78 - y25_78 <= 1
 c226: x25 + x86 - y25_86 <= 1
 c227: x25 + x88 <= 1
 c228: x25 + x98 - y25_98 <= 1
 c229: x26 + x32 - y26_32 <= 1
 c230: x26 + x48 - y26_48 <= 1
 c231: x26 + x87 <= 1
 c232: x26 + x96 - y26_96 <= 1
 c233: x26 + x100 <= 1
 c234: x27 + x33 - y27_33 <= 1
 c235: x27 + x64 - y27_64 <= 1
 c236: x27 + x65 - y27_65 <= 1
 c237: x27 + x81 <= 1
 c238: x27 + x83 - y27_83 <= 1
 c239: x27 + x88 - y27_88 <= 1
 c240: x27 + x93 - y27_93 <= 1
 c241: x27 + x95 - y27_95 <= 1
 c242: x27 + x100 - y27_100 <= 1
 c243: x28 + x49 <= 1
 c244: x28 + x50 <= 1
 c245: x28 + x75 <= 1
 c246: x28 + x78 - y28_78 <= 1
 c247: x28 + x79 - y28_79 <= 1
 c248: x28 + x99 - y28_99 <= 1
 c249: x28 + x102 - y28_102 <= 1
 c250: x29 + x48 - y29_48 <= 1
 c251: x29 + x63 - y29_63 <= 1
 c252: x29 + x64 - y29_64 <= 1
 c253: x29 + x71 - y29_71 <= 1
 c254: x29 + x90 - y29_90 <= 1
 c255: x29 + x95 - y29_95 <= 1
 c256: x29 + x99 - y29_99 <= 1
 c257: x30 + x41 - y30_41 <= 1
 c258: x30 + x80 - y30_80 <= 1
 c259: x30 + x81 <= 1
 c260: x30 + x82 - y30_82 <= 1
 c261: x30 + x86 - y30_86 <= 1
 c262: x30 + x97 - y30_97 <= 1
 c263: x30 + x98 - y30_98 <= 1
 c264: x31 + x40 <= 1
 c265: x31 + x83 - y31_83 <= 1
 c266: x32 + x36 - y32_36 <= 1
 c267: x32 + x47 - y32_47 <= 1
 c268: x32 + x82 - y32_82 <= 1
 c269: x32 + x87 - y32_87 <= 1
 c270: x33 + x47 - y33_47 <= 1
 c271: x33 + x59 - y33_59 <= 1
 c272: x33 + x72 <= 1
 c273: x33 + x75 - y33_75 <= 1
 c274: x33 + x88 - y33_88 <= 1
 c275: x33 + x94 <= 1
 c276: x34 + x35 - y34_35 <= 1
 c277: x34 + x37 <= 1
 c278: x34 + x62 - y34_62 <= 1
 c279: x34 + x63 - y34_63 <= 1
 c280: x34 + x69 - y34_69 <= 1
 c281: x34 + x80 - y34_80 <= 1
 c282: x35 + x38 - y35_38 <= 1
 c283: x35 + x49 <= 1
 c284: x35 + x50 - y35_50 <= 1
 c285: x35 + x54 - y35_54 <= 1
 c286: x35 + x62 - y35_62 <= 1
 c287: x35 + x68 - y35_68 <= 1
 c288: x35 + x77 <= 1
 c289: x36 + x54 - y36_54 <= 1
 c290: x36 + x55 <= 1
 c291: x36 + x64 - y36_64 <= 1
 c292: x36 + x67 - y36_67 <= 1
 c293: x36 + x76 <= 1
 c294: x36 + x83 - y36_83 <= 1
 c295: x36 + x95 <= 1
 c296: x37 + x40 - y37_40 <= 1
 c297: x37 + x43 - y37_43 <= 1
 c298: x37 + x44 - y37_44 <= 1
 c299: x37 + x78 - y37_78 <= 1
 c300: x37 + x83 - y37_83 <= 1
 c301: x37 + x85 <= 1
 c302: x38 + x47 - y38_47 <= 1
 c303: x38 + x51 - y38_51 <= 1
 c304: x38 + x65 - y38_65 <= 1
 c305: x38 + x66 - y38_66 <= 1
 c306: x38 + x71 - y38_71 <= 1
 c307: x38 + x79 - y38_79 <= 1
 c308: x38 + x83 - y38_83 <= 1
 c309: x38 + x93 - y38_93 <= 1
 c310: x38 + x100 <= 1
 c311: x38 + x101 - y38_101 <= 1
 c312: x39 + x68 <= 1
 c313: x39 + x83 - y39_83 <= 1
 c314: x39 + x87 - y39_87 <= 1
 c315: x39 + x90 - y39_90 <= 1
 c316: x40 + x41 - y40_41 <= 1
 c317: x40 + x49 - y40_49 <= 1
 c318: x40 + x61 - y40_61 <= 1
 c319: x40 + x84 - y40_84 <= 1
 c320: x40 + x95 <= 1
 c321: x40 + x96 - y40_96 <= 1
 c322: x41 + x42 - y41_42 <= 1
 c323: x41 + x49 - y41_49 <= 1
 c324: x41 + x51 - y41_51 <= 1
 c325: x41 + x53 - y41_53 <= 1
 c326: x41 + x82 - y41_82 <= 1
 c327: x41 + x87 - y41_87 <= 1
 c328: x41 + x98 <= 1
 c329: x41 + x99 - y41_99 <= 1
 c330: x42 + x61 - y42_61 <= 1
 c331: x42 + x64 <= 1
 c332: x42 + x74 - y42_74 <= 1
 c333: x42 + x83 - y42_83 <= 1
 c334: x42 + x90 - y42_90 <= 1
 c335: x42 + x102 <= 1
 c336: x43 + x47 - y43_47 <= 1
 c337: x43 + x62 - y43_62 <= 1
 c338: x43 + x63 <= 1
 c339: x43 + x67 - y43_67 <= 1
 c340: x43 + x84 <= 1
 c341: x43 + x102 - y43_102 <= 1
 c342: x44 + x59 - y44_59 <= 1
 c343: x44 + x60 <= 1
 c344: x44 + x63 <= 1
 c345: x44 + x66 <= 1
 c346: x44 + x73 - y44_73 <= 1
 c347: x44 + x98 - y44_98 <= 1
 c348: x44 + x99 - y44_99 <= 1
 c349: x45 + x62 <= 1
 c350: x45 + x68 - y45_68 <= 1
 c351: x45 + x71 - y45_71 <= 1
 c352: x45 + x73 - y45_73 <= 1
 c353: x45 + x74 <= 1
 c354: x45 + x87 - y45_87 <= 1
 c355: x46 + x47 - y46_47 <= 1
 c356: x46 + x49 - y46_49 <= 1
 c357: x46 + x50 - y46_50 <= 1
 c358: x46 + x59 <= 1
 c359: x46 + x67 - y46_67 <= 1
 c360: x46 + x72 <= 1
 c361: x46 + x79 - y46_79 <= 1
 c362: x47 + x51 <= 1
 c363: x47 + x52 - y47_52 <= 1
 c364: x47 + x53 - y47_53 <= 1
 c365: x47 + x58 <= 1
 c366: x47 + x59 <= 1
 c367: x47 + x60 - y47_60 <= 1
 c368: x47 + x73 <= 1
 c369: x47 + x82 - y47_82 <= 1
 c370: x47 + x99 <= 1
 c371: x48 + x56 - y48_56 <= 1
 c372: x48 + x64 - y48_64 <= 1
 c373: x48 + x86 <= 1
 c374: x48 + x87 <= 1
 c375: x48 + x96 - y48_96 <= 1
 c376: x48 + x98 - y48_98 <= 1
 c377: x49 + x51 <= 1
 c378: x49 + x63 - y49_63 <= 1
 c379: x49 + x64 - y49_64 <= 1
 c380: x49 + x76 - y49_76 <= 1
 c381: x49 + x77 - y49_77 <= 1
 c382: x50 + x60 <= 1
 c383: x50 + x64 - y50_64 <= 1
 c384: x50 + x80 - y50_80 <= 1
 c385: x50 + x98 - y50_98 <= 1
 c386: x51 + x53 - y51_53 <= 1
 c387: x51 + x54 - y51_54 <= 1
 c388: x51 + x61 <= 1
 c389: x51 + x63 - y51_63 <= 1
 c390: x51 + x75 - y51_75 <= 1
 c391: x51 + x79 <= 1
 c392: x51 + x82 - y51_82 <= 1
 c393: x51 + x102 <= 1
 c394: x52 + x61 <= 1
 c395: x52 + x63 <= 1
 c396: x52 + x80 - y52_80 <= 1
 c397: x52 + x90 <= 1
 c398: x52 + x98 <= 1
 c399: x53 + x56 - y53_56 <= 1
 c400: x53 + x64 <= 1
 c401: x53 + x66 - y53_66 <= 1
 c402: x53 + x90 - y53_90 <= 1
 c403: x54 + x56 - y54_56 <= 1
 c404: x54 + x60 <= 1
 c405: x54 + x62 <= 1
 c406: x54 + x97 - y54_97 <= 1
 c407: x54 + x102 - y54_102 <= 1
 c408: x55 + x59 - y55_59 <= 1
 c409: x55 + x67 - y55_67 <= 1
 c410: x55 + x91 <= 1
 c411: x55 + x92 - y55_92 <= 1
 c412: x55 + x96 - y55_96 <= 1
 c413: x55 + x102 - y55_102 <= 1
 c414: x56 + x62 - y56_62 <= 1
 c415: x56 + x63 <= 1
 c416: x56 + x93 - y56_93 <= 1
 c417: x57 + x64 - y57_64 <= 1
 c418: x57 + x77 <= 1
 c419: x57 + x85 - y57_85 <= 1
 c420: x57 + x88 - y57_88 <= 1
 c421: x57 + x93 - y57_93 <= 1
 c422: x57 + x95 - y57_95 <= 1
 c423: x58 + x59 - y58_59 <= 1
 c424: x58 + x92 - y58_92 <= 1
 c425: x59 + x65 - y59_65 <= 1
 c426: x59 + x67 - y59_67 <= 1
 c427: x59 + x96 - y59_96 <= 1
 c428: x60 + x63 - y60_63 <= 1
 c429: x60 + x87 - y60_87 <= 1
 c430: x60 + x95 - y60_95 <= 1
 c431: x60 + x96 - y60_96 <= 1
 c432: x60 + x101 <= 1
 c433: x60 + x102 - y60_102 <= 1
 c434: x61 + x63 - y61_63 <= 1
 c435: x61 + x74 - y61_74 <= 1
 c436: x61 + x85 - y61_85 <= 1
 c437: x62 + x69 - y62_69 <= 1
 c438: x62 + x84 - y62_84 <= 1
 c439: x63 + x67 - y63_67 <= 1
 c440: x63 + x69 - y63_69 <= 1
 c441: x63 + x74 - y63_74 <= 1
 c442: x63 + x80 - y63_80 <= 1
 c443: x63 + x93 - y63_93 <= 1
 c444: x64 + x70 - y64_70 <= 1
 c445: x64 + x78 <= 1
 c446: x64 + x92 <= 1
 c447: x64 + x102 - y64_102 <= 1
 c448: x65 + x66 <= 1
 c449: x65 + x75 - y65_75 <= 1
 c450: x65 + x89 - y65_89 <= 1
 c451: x65 + x91 - y65_91 <= 1
 c452: x65 + x100 - y65_100 <= 1
 c453: x65 + x101 - y65_101 <= 1
 c454: x66 + x75 - y66_75 <= 1
 c455: x66 + x77 - y66_77 <= 1
 c456: x66 + x90 - y66_90 <= 1
 c457: x66 + x100 - y66_100 <= 1
 c458: x67 + x75 - y67_75 <= 1
 c459: x67 + x93 - y67_93 <= 1
 c460: x67 + x94 - y67_94 <= 1
 c461: x68 + x84 - y68_84 <= 1
 c462: x68 + x98 <= 1
 c463: x69 + x90 - y69_90 <= 1
 c464: x69 + x98 - y69_98 <= 1
 c465: x69 + x102 - y69_102 <= 1
 c466: x70 + x83 <= 1
 c467: x70 + x90 - y70_90 <= 1
 c468: x70 + x101 - y70_101 <= 1
 c469: x71 + x79 - y71_79 <= 1
 c470: x71 + x85 - y71_85 <= 1
 c471: x71 + x98 - y71_98 <= 1
 c472: x72 + x80 - y72_80 <= 1
 c473: x72 + x86 <= 1
 c474: x72 + x88 - y72_88 <= 1
 c475: x72 + x96 - y72_96 <= 1
 c476: x73 + x76 - y73_76 <= 1
 c477: x73 + x78 - y73_78 <= 1
 c478: x73 + x87 - y73_87 <= 1
 c479: x73 + x98 - y73_98 <= 1
 c480: x73 + x100 - y73_100 <= 1
 c481: x74 + x95 - y74_95 <= 1
 c482: x75 + x89 - y75_89 <= 1
 c483: x75 + x90 - y75_90 <= 1
 c484: x75 + x92 - y75_92 <= 1
 c485: x76 + x91 - y76_91 <= 1
 c486: x77 + x83 - y77_83 <= 1
 c487: x77 + x92 - y77_92 <= 1
 c488: x78 + x84 <= 1
 c489: x78 + x85 <= 1
 c490: x78 + x94 - y78_94 <= 1
 c491: x78 + x98 <= 1
 c492: x78 + x101 - y78_101 <= 1
 c493: x80 + x98 - y80_98 <= 1
 c494: x82 + x88 <= 1
 c495: x82 + x95 - y82_95 <= 1
 c496: x82 + x98 - y82_98 <= 1
 c497: x83 + x90 - y83_90 <= 1
 c498: x83 + x93 - y83_93 <= 1
 c499: x83 + x99 <= 1
 c500: x84 + x101 - y84_101 <= 1
 c501: x85 + x99 - y85_99 <= 1
 c502: x86 + x87 - y86_87 <= 1
 c503: x86 + x90 - y86_90 <= 1
 c504: x87 + x98 - y87_98 <= 1
 c505: x88 + x99 <= 1
 c506: x89 + x91 - y89_91 <= 1
 c507: x89 + x98 - y89_98 <= 1
 c508: x89 + x100 <= 1
 c509: x89 + x102 <= 1
 c510: x91 + x92 - y91_92 <= 1
 c511: x91 + x95 - y91_95 <= 1
 c512: x91 + x98 - y91_98 <= 1
 c513: x92 + x96 <= 1
 c514: x92 + x101 - y92_101 <= 1
 c515: x95 + x101 - y95_101 <= 1
 c516: x96 + x97 <= 1
 c517: x96 + x99 - y96_99 <= 1
 c518: x99 + x101 - y99_101 <= 1
Bounds
 0 <= x0 <= 1
 0 <= x1 <= 1
 0 <= x2 <= 1
 0 <= x3 <= 1
 0 <= x4 <= 1
 0 <= x5 <= 1
 0 <= x6 <= 1
 0 <= x7 <= 1
 0 <= x8 <= 1
 0 <= x9 <= 1
 0 <= x10 <= 1
 0 <= x11 <= 1
 0 <= x12 <= 1
 0 <= x13 <= 1
 0 <= x14 <= 1
 0 <= x15 <= 1
 0 <= x16 <= 1
 0 <= x17 <= 1
 0 <= x18 <= 1
 0 <= x19 <= 1
 0 <= x20 <= 1
 0 <= x21 <= 1
 0 <= x22 <= 1
 0 <= x23 <= 1
 0 <= x24 <= 1
 0 <= x25 <= 1
 0 <= x26 <= 1
 0 <= x27 <= 1
 0 <= x28 <= 1
 0 <= x29 <= 1
 0 <= x30 <= 1
 0 <= x31 <= 1
 0 <= x32 <= 1
 0 <= x33 <= 1
 0 <= x34 <= 1
 0 <= x35 <= 1
 0 <= x36 <= 1
 0 <= x37 <= 1
 0 <= x38 <= 1
 0 <= x39 <= 1
 0 <= x40 <= 1
 0 <= x41 <= 1
 0 <= x42 <= 1
 0 <= x43 <= 1
 0 <= x44 <= 1
 0 <= x45 <= 1
 0 <= x46 <= 1
 0 <= x47 <= 1
 0 <= x48 <= 1
 0 <= x49 <= 1
 0 <= x50 <= 1
 0 <= x51 <= 1
 0 <= x52 <= 1
 0 <= x53 <= 1
 0 <= x54 <= 1
 0 <= x55 <= 1
 0 <= x56 <= 1
 0 <= x57 <= 1
 0 <= x58 <= 1
 0 <= x59 <= 1
 0 <= x60 <= 1
 0 <= x61 <= 1
 0 <= x62 <= 1
 0 <= x63 <= 1
 0 <= x64 <= 1
 0 <= x65 <= 1
 0 <= x66 <= 1
 0 <= x67 <= 1
 0 <= x68 <= 1
 0 <= x69 <= 1
 0 <= x70 <= 1
 0 <= x71 <= 1
 0 <= x72 <= 1
 0 <= x73 <= 1
 0 <= x74 <= 1
 0 <= x75 <= 1
 0 <= x76 <= 1
 0 <= x77 <= 1
 0 <= x78 <= 1
 0 <= x79 <= 1
 0 <= x80 <= 1
 0 <= x81 <= 1
 0 <= x82 <= 1
 0 <= x83 <= 1
 0 <= x84 <= 1
 0 <= x85 <= 1
 0 <= x86 <= 1
 0 <= x87 <= 1
 0 <= x88 <= 1
 0 <= x89 <= 1
 0 <= x90 <= 1
 0 <= x91 <= 1
 0 <= x92 <= 1
 0 <= x93 <= 1
 0 <= x94 <= 1
 0 <= x95 <= 1
 0 <= x96 <= 1
 0 <= x97 <= 1
 0 <= x98 <= 1
 0 <= x99 <= 1
 0 <= x100 <= 1
 0 <= x101 <= 1
 0 <= x102 <= 1
 0 <= y0_86 <= 1
 0 <= y21_28 <= 1
 0 <= y30_41 <= 1
 0 <= y86_90 <= 1
 0 <= y95_101 <= 1
 0 <= y8_63 <= 1
 0 <= y0_76 <= 1
 0 <= y5_57 <= 1
 0 <= y6_54 <= 1
 0 <= y14_31 <= 1
 0 <= y11_22 <= 1
 0 <= y32_87 <= 1
 0 <= y36_67 <= 1
 0 <= y2_47 <= 1
 0 <= y27_93 <= 1
 0 <= y17_39 <= 1
 0 <= y37_44 <= 1
 0 <= y11_41 <= 1
 0 <= y29_95 <= 1
 0 <= y61_63 <= 1
 0 <= y6_67 <= 1
 0 <= y78_101 <= 1
 0 <= y83_90 <= 1
 0 <= y45_71 <= 1
 0 <= y20_47 <= 1
 0 <= y58_59 <= 1
 0 <= y7_15 <= 1
 0 <= y3_55 <= 1
 0 <= y62_84 <= 1
 0 <= y33_59 <= 1
 0 <= y8_51 <= 1
 0 <= y72_80 <= 1
 0 <= y17_50 <= 1
 0 <= y42_74 <= 1
 0 <= y14_19 <= 1
 0 <= y55_92 <= 1
 0 <= y67_94 <= 1
 0 <= y30_86 <= 1
 0 <= y7_80 <= 1
 0 <= y44_98 <= 1
 0 <= y24_40 <= 1
 0 <= y9_79 <= 1
 0 <= y18_98 <= 1
 0 <= y69_102 <= 1
 0 <= y19_27 <= 1
 0 <= y80_98 <= 1
 0 <= y6_27 <= 1
 0 <= y27_65 <= 1
 0 <= y38_93 <= 1
 0 <= y11_61 <= 1
 0 <= y18_48 <= 1
 0 <= y89_91 <= 1
 0 <= y4_99 <= 1
 0 <= y65_75 <= 1
 0 <= y15_57 <= 1
 0 <= y32_82 <= 1
 0 <= y20_61 <= 1
 0 <= y23_64 <= 1
 0 <= y21_48 <= 1
 0 <= y73_100 <= 1
 0 <= y29_48 <= 1
 0 <= y70_101 <= 1
 0 <= y24_94 <= 1
 0 <= y73_78 <= 1
 0 <= y54_56 <= 1
 0 <= y2_82 <= 1
 0 <= y0_78 <= 1
 0 <= y61_74 <= 1
 0 <= y33_47 <= 1
 0 <= y49_76 <= 1
 0 <= y15_24 <= 1
 0 <= y26_96 <= 1
 0 <= y41_82 <= 1
 0 <= y55_102 <= 1
 0 <= y6_21 <= 1
 0 <= y12_93 <= 1
 0 <= y27_95 <= 1
 0 <= y38_79 <= 1
 0 <= y39_87 <= 1
 0 <= y13_87 <= 1
 0 <= y63_93 <= 1
 0 <= y35_54 <= 1
 0 <= y28_79 <= 1
 0 <= y54_97 <= 1
 0 <= y9_98 <= 1
 0 <= y1_13 <= 1
 0 <= y18_79 <= 1
 0 <= y57_88 <= 1
 0 <= y87_98 <= 1
 0 <= y2_10 <= 1
 0 <= y0_38 <= 1
 0 <= y48_96 <= 1
 0 <= y6_12 <= 1
 0 <= y2_36 <= 1
 0 <= y16_31 <= 1
 0 <= y34_62 <= 1
 0 <= y14_102 <= 1
 0 <= y43_47 <= 1
 0 <= y41_51 <= 1
 0 <= y10_17 <= 1
 0 <= y0_7 <= 1
 0 <= y69_90 <= 1
 0 <= y8_71 <= 1
 0 <= y22_75 <= 1
 0 <= y60_95 <= 1
 0 <= y26_32 <= 1
 0 <= y61_85 <= 1
 0 <= y7_28 <= 1
 0 <= y63_67 <= 1
 0 <= y6_51 <= 1
 0 <= y38_83 <= 1
 0 <= y24_101 <= 1
 0 <= y5_77 <= 1
 0 <= y15_29 <= 1
 0 <= y29_99 <= 1
 0 <= y91_95 <= 1
 0 <= y48_56 <= 1
 0 <= y30_97 <= 1
 0 <= y19_34 <= 1
 0 <= y10_86 <= 1
 0 <= y25_86 <= 1
 0 <= y6_16 <= 1
 0 <= y73_76 <= 1
 0 <= y36_64 <= 1
 0 <= y7_21 <= 1
 0 <= y27_88 <= 1
 0 <= y50_80 <= 1
 0 <= y25_98 <= 1
 0 <= y13_54 <= 1
 0 <= y1_16 <= 1
 0 <= y65_100 <= 1
 0 <= y46_79 <= 1
 0 <= y55_96 <= 1
 0 <= y3_6 <= 1
 0 <= y57_85 <= 1
 0 <= y43_102 <= 1
 0 <= y56_62 <= 1
 0 <= y46_49 <= 1
 0 <= y47_52 <= 1
 0 <= y21_33 <= 1
 0 <= y37_40 <= 1
 0 <= y65_91 <= 1
 0 <= y9_23 <= 1
 0 <= y55_67 <= 1
 0 <= y67_93 <= 1
 0 <= y44_73 <= 1
 0 <= y18_77 <= 1
 0 <= y41_99 <= 1
 0 <= y24_37 <= 1
 0 <= y48_98 <= 1
 0 <= y57_64 <= 1
 0 <= y25_74 <= 1
 0 <= y14_100 <= 1
 0 <= y41_49 <= 1
 0 <= y56_93 <= 1
 0 <= y40_96 <= 1
 0 <= y64_102 <= 1
 0 <= y46_67 <= 1
 0 <= y20_50 <= 1
 0 <= y89_98 <= 1
 0 <= y68_84 <= 1
 0 <= y69_98 <= 1
 0 <= y66_100 <= 1
 0 <= y38_101 <= 1
 0 <= y96_99 <= 1
 0 <= y37_83 <= 1
 0 <= y35_38 <= 1
 0 <= y6_49 <= 1
 0 <= y51_75 <= 1
 0 <= y29_71 <= 1
 0 <= y67_75 <= 1
 0 <= y47_82 <= 1
 0 <= y33_88 <= 1
 0 <= y11_100 <= 1
 0 <= y71_79 <= 1
 0 <= y3_41 <= 1
 0 <= y82_95 <= 1
 0 <= y0_66 <= 1
 0 <= y63_74 <= 1
 0 <= y39_90 <= 1
 0 <= y49_64 <= 1
 0 <= y63_80 <= 1
 0 <= y29_64 <= 1
 0 <= y75_90 <= 1
 0 <= y4_86 <= 1
 0 <= y36_54 <= 1
 0 <= y7_66 <= 1
 0 <= y3_8 <= 1
 0 <= y84_101 <= 1
 0 <= y26_48 <= 1
 0 <= y91_98 <= 1
 0 <= y33_75 <= 1
 0 <= y53_56 <= 1
 0 <= y71_98 <= 1
 0 <= y86_87 <= 1
 0 <= y5_44 <= 1
 0 <= y11_73 <= 1
 0 <= y29_63 <= 1
 0 <= y27_83 <= 1
 0 <= y40_41 <= 1
 0 <= y39_83 <= 1
 0 <= y34_35 <= 1
 0 <= y8_24 <= 1
 0 <= y65_89 <= 1
 0 <= y14_18 <= 1
 0 <= y25_26 <= 1
 0 <= y60_102 <= 1
 0 <= y37_78 <= 1
 0 <= y5_21 <= 1
 0 <= y24_86 <= 1
 0 <= y1_84 <= 1
 0 <= y52_80 <= 1
 0 <= y50_64 <= 1
 0 <= y9_52 <= 1
 0 <= y27_100 <= 1
 0 <= y20_77 <= 1
 0 <= y1_26 <= 1
 0 <= y30_98 <= 1
 0 <= y85_99 <= 1
 0 <= y51_54 <= 1
 0 <= y20_26 <= 1
 0 <= y27_33 <= 1
 0 <= y59_65 <= 1
 0 <= y23_63 <= 1
 0 <= y82_98 <= 1
 0 <= y7_24 <= 1
 0 <= y40_61 <= 1
 0 <= y49_77 <= 1
 0 <= y74_95 <= 1
 0 <= y12_52 <= 1
 0 <= y43_62 <= 1
 0 <= y31_83 <= 1
 0 <= y6_99 <= 1
 0 <= y22_70 <= 1
 0 <= y59_96 <= 1
 0 <= y51_63 <= 1
 0 <= y2_50 <= 1
 0 <= y46_50 <= 1
 0 <= y10_82 <= 1
 0 <= y23_52 <= 1
 0 <= y21_36 <= 1
 0 <= y32_36 <= 1
 0 <= y55_59 <= 1
 0 <= y51_82 <= 1
 0 <= y60_63 <= 1
 0 <= y8_13 <= 1
 0 <= y7_47 <= 1
 0 <= y37_43 <= 1
 0 <= y78_94 <= 1
 0 <= y75_92 <= 1
 0 <= y28_78 <= 1
 0 <= y66_90 <= 1
 0 <= y83_93 <= 1
 0 <= y8_46 <= 1
 0 <= y11_75 <= 1
 0 <= y6_33 <= 1
 0 <= y38_65 <= 1
 0 <= y41_42 <= 1
 0 <= y40_49 <= 1
 0 <= y28_99 <= 1
 0 <= y0_6 <= 1
 0 <= y60_96 <= 1
 0 <= y15_51 <= 1
 0 <= y19_52 <= 1
 0 <= y44_99 <= 1
 0 <= y92_101 <= 1
 0 <= y14_92 <= 1
 0 <= y71_85 <= 1
 0 <= y73_98 <= 1
 0 <= y4_18 <= 1
 0 <= y14_70 <= 1
 0 <= y12_82 <= 1
 0 <= y25_78 <= 1
 0 <= y6_24 <= 1
 0 <= y27_64 <= 1
 0 <= y6_50 <= 1
 0 <= y3_76 <= 1
 0 <= y53_90 <= 1
 0 <= y10_49 <= 1
 0 <= y72_88 <= 1
 0 <= y41_53 <= 1
 0 <= y5_78 <= 1
 0 <= y14_27 <= 1
 0 <= y15_18 <= 1
 0 <= y91_92 <= 1
 0 <= y13_24 <= 1
 0 <= y7_102 <= 1
 0 <= y25_45 <= 1
 0 <= y15_38 <= 1
 0 <= y70_90 <= 1
 0 <= y59_67 <= 1
 0 <= y32_47 <= 1
 0 <= y6_53 <= 1
 0 <= y73_87 <= 1
 0 <= y42_61 <= 1
 0 <= y75_89 <= 1
 0 <= y38_47 <= 1
 0 <= y44_59 <= 1
 0 <= y76_91 <= 1
 0 <= y49_63 <= 1
 0 <= y65_101 <= 1
 0 <= y3_7 <= 1
 0 <= y34_80 <= 1
 0 <= y23_54 <= 1
 0 <= y47_53 <= 1
 0 <= y72_96 <= 1
 0 <= y48_64 <= 1
 0 <= y16_25 <= 1
 0 <= y11_42 <= 1
 0 <= y22_101 <= 1
 0 <= y20_93 <= 1
 0 <= y18_61 <= 1
 0 <= y77_92 <= 1
 0 <= y54_102 <= 1
 0 <= y16_78 <= 1
 0 <= y30_82 <= 1
 0 <= y28_102 <= 1
 0 <= y18_76 <= 1
 0 <= y57_95 <= 1
 0 <= y8_65 <= 1
 0 <= y45_68 <= 1
 0 <= y34_69 <= 1
 0 <= y0_93 <= 1
 0 <= y38_71 <= 1
 0 <= y36_83 <= 1
 0 <= y34_63 <= 1
 0 <= y63_69 <= 1
 0 <= y35_62 <= 1
 0 <= y9_55 <= 1
 0 <= y38_51 <= 1
 0 <= y1_99 <= 1
 0 <= y42_83 <= 1
 0 <= y18_71 <= 1
 0 <= y66_77 <= 1
 0 <= y24_43 <= 1
 0 <= y3_27 <= 1
 0 <= y51_53 <= 1
 0 <= y45_87 <= 1
 0 <= y50_98 <= 1
 0 <= y11_62 <= 1
 0 <= y53_66 <= 1
 0 <= y15_28 <= 1
 0 <= y64_70 <= 1
 0 <= y42_90 <= 1
 0 <= y12_23 <= 1
 0 <= y60_87 <= 1
 0 <= y46_47 <= 1
 0 <= y62_69 <= 1
 0 <= y6_17 <= 1
 0 <= y99_101 <= 1
 0 <= y5_36 <= 1
 0 <= y17_33 <= 1
 0 <= y35_50 <= 1
 0 <= y22_90 <= 1
 0 <= y43_67 <= 1
 0 <= y41_87 <= 1
 0 <= y45_73 <= 1
 0 <= y35_68 <= 1
 0 <= y20_45 <= 1
 0 <= y9_64 <= 1
 0 <= y4_40 <= 1
 0 <= y0_88 <= 1
 0 <= y23_46 <= 1
 0 <= y38_66 <= 1
 0 <= y7_43 <= 1
 0 <= y11_44 <= 1
 0 <= y29_90 <= 1
 0 <= y17_60 <= 1
 0 <= y40_84 <= 1
 0 <= y30_80 <= 1
 0 <= y5_98 <= 1
 0 <= y14_55 <= 1
 0 <= y57_93 <= 1
 0 <= y3_20 <= 1
 0 <= y47_60 <= 1
 0 <= y11_79 <= 1
 0 <= y17_19 <= 1
 0 <= y13_77 <= 1
 0 <= y6_63 <= 1
 0 <= y17_53 <= 1
 0 <= y77_83 <= 1
 0 <= y0_26 <= 1
 0 <= y1_27 <= 1
 0 <= y66_75 <= 1
 0 <= y17_97 <= 1
 0 <= y21_72 <= 1
 0 <= y58_92 <= 1
Binaries
 x0  x1  x2  x3  x4  x5  x6  x7  x8  x9  x10  x11  x12  x13  x14  x15  x16 
 x17  x18  x19  x20  x21  x22  x23  x24  x25  x26  x27  x28  x29  x30  x31 
 x32  x33  x34  x35  x36  x37  x38  x39  x40  x41  x42  x43  x44  x45  x46 
 x47  x48  x49  x50  x51  x52  x53  x54  x55  x56  x57  x58  x59  x60  x61 
 x62  x63  x64  x65  x66  x67  x68  x69  x70  x71  x72  x73  x74  x75  x76 
 x77  x78  x79  x80  x81  x82  x83  x84  x85  x86  x87  x88  x89  x90  x91 
 x92  x93  x94  x95  x96  x97  x98  x99  x100  x101  x102  y0_86  y21_28 
 y30_41  y86_90  y95_101  y8_63  y0_76  y5_57  y6_54  y14_31  y11_22  y32_87 
 y36_67  y2_47  y27_93  y17_39  y37_44  y11_41  y29_95  y61_63  y6_67  y78_101 
 y83_90  y45_71  y20_47  y58_59  y7_15  y3_55  y62_84  y33_59  y8_51  y72_80 
 y17_50  y42_74  y14_19  y55_92  y67_94  y30_86  y7_80  y44_98  y24_40  y9_79 
 y18_98  y69_102  y19_27  y80_98  y6_27  y27_65  y38_93  y11_61  y18_48 
 y89_91  y4_99  y65_75  y15_57  y32_82  y20_61  y23_64  y21_48  y73_100 
 y29_48  y70_101  y24_94  y73_78  y54_56  y2_82  y0_78  y61_74  y33_47  y49_76 
 y15_24  y26_96  y41_82  y55_102  y6_21  y12_93  y27_95  y38_79  y39_87 
 y13_87  y63_93  y35_54  y28_79  y54_97  y9_98  y1_13  y18_79  y57_88  y87_98 
 y2_10  y0_38  y48_96  y6_12  y2_36  y16_31  y34_62  y14_102  y43_47  y41_51 
 y10_17  y0_7  y69_90  y8_71  y22_75  y60_95  y26_32  y61_85  y7_28  y63_67 
 y6_51  y38_83  y24_101  y5_77  y15_29  y29_99  y91_95  y48_56  y30_97  y19_34 
 y10_86  y25_86  y6_16  y73_76  y36_64  y7_21  y27_88  y50_80  y25_98  y13_54 
 y1_16  y65_100  y46_79  y55_96  y3_6  y57_85  y43_102  y56_62  y46_49  y47_52 
 y21_33  y37_40  y65_91  y9_23  y55_67  y67_93  y44_73  y18_77  y41_99  y24_37 
 y48_98  y57_64  y25_74  y14_100  y41_49  y56_93  y40_96  y64_102  y46_67 
 y20_50  y89_98  y68_84  y69_98  y66_100  y38_101  y96_99  y37_83  y35_38 
 y6_49  y51_75  y29_71  y67_75  y47_82  y33_88  y11_100  y71_79  y3_41  y82_95 
 y0_66  y63_74  y39_90  y49_64  y63_80  y29_64  y75_90  y4_86  y36_54  y7_66 
 y3_8  y84_101  y26_48  y91_98  y33_75  y53_56  y71_98  y86_87  y5_44  y11_73 
 y29_63  y27_83  y40_41  y39_83  y34_35  y8_24  y65_89  y14_18  y25_26 
 y60_102  y37_78  y5_21  y24_86  y1_84  y52_80  y50_64  y9_52  y27_100  y20_77 
 y1_26  y30_98  y85_99  y51_54  y20_26  y27_33  y59_65  y23_63  y82_98  y7_24 
 y40_61  y49_77  y74_95  y12_52  y43_62  y31_83  y6_99  y22_70  y59_96  y51_63 
 y2_50  y46_50  y10_82  y23_52  y21_36  y32_36  y55_59  y51_82  y60_63  y8_13 
 y7_47  y37_43  y78_94  y75_92  y28_78  y66_90  y83_93  y8_46  y11_75  y6_33 
 y38_65  y41_42  y40_49  y28_99  y0_6  y60_96  y15_51  y19_52  y44_99  y92_101 
 y14_92  y71_85  y73_98  y4_18  y14_70  y12_82  y25_78  y6_24  y27_64  y6_50 
 y3_76  y53_90  y10_49  y72_88  y41_53  y5_78  y14_27  y15_18  y91_92  y13_24 
 y7_102  y25_45  y15_38  y70_90  y59_67  y32_47  y6_53  y73_87  y42_61  y75_89 
 y38_47  y44_59  y76_91  y49_63  y65_101  y3_7  y34_80  y23_54  y47_53  y72_96 
 y48_64  y16_25  y11_42  y22_101  y20_93  y18_61  y77_92  y54_102  y16_78 
 y30_82  y28_102  y18_76  y57_95  y8_65  y45_68  y34_69  y0_93  y38_71  y36_83 
 y34_63  y63_69  y35_62  y9_55  y38_51  y1_99  y42_83  y18_71  y66_77  y24_43 
 y3_27  y51_53  y45_87  y50_98  y11_62  y53_66  y15_28  y64_70  y42_90  y12_23 
 y60_87  y46_47  y62_69  y6_17  y99_101  y5_36  y17_33  y35_50  y22_90  y43_67 
 y41_87  y45_73  y35_68  y20_45  y9_64  y4_40  y0_88  y23_46  y38_66  y7_43 
 y11_44  y29_90  y17_60  y40_84  y30_80  y5_98  y14_55  y57_93  y3_20  y47_60 
 y11_79  y17_19  y13_77  y6_63  y17_53  y77_83  y0_26  y1_27  y66_75  y17_97 
 y21_72  y58_92 
End
